p cnf 50 148
a 11 47 0
e 1 2 3 4 5 6 7 8 9 10 12 13 14 15 16 17 18 19 20 21 22 23 24 25 26 27 28 29 30 31 32 33 34 35 36 37 38 39 40 41 42 43 44 45 46 48 49 50 0
-3 1 0
-3 -2 0
-1 2 3 0
3 4 -5 0
-3 -4 -5 0
3 -4 5 0
-3 4 5 0
6 -4 0
6 2 0
4 -2 -6 0
-3 6 -7 0
3 -6 -7 0
-3 -6 7 0
3 6 7 0
9 7 0
9 -8 0
-7 8 -9 0
-11 -10 0
-11 -10 0
10 11 0
-12 11 0
-12 10 0
-11 -10 12 0
13 -9 0
13 -12 0
9 12 -13 0
-15 -14 0
-15 -8 0
14 8 15 0
15 -2 -16 0
-15 2 -16 0
15 2 16 0
-15 -2 16 0
13 16 -17 0
-13 -16 -17 0
13 -16 17 0
-13 16 17 0
-18 -5 0
-18 17 0
5 -17 18 0
-21 -19 0
-21 -20 0
19 20 21 0
-22 -10 0
-22 -4 0
10 4 22 0
-24 -23 0
-24 -2 0
23 2 24 0
25 -8 0
25 19 0
8 -19 -25 0
-26 24 0
-26 -25 0
-24 25 26 0
27 -22 0
27 -26 0
22 26 -27 0
28 21 0
28 -27 0
-21 27 -28 0
-18 28 -29 0
18 -28 -29 0
-18 -28 29 0
18 28 29 0
-11 -4 -30 0
11 4 -30 0
-11 4 30 0
11 -4 30 0
-30 -9 -31 0
30 9 -31 0
-30 9 31 0
30 -9 31 0
-32 -31 0
-32 -10 0
31 10 32 0
-32 -25 -33 0
32 25 -33 0
-32 25 33 0
32 -25 33 0
-32 31 -34 0
32 -31 -34 0
-32 -31 34 0
32 31 34 0
35 -6 0
35 34 0
6 -34 -35 0
-36 33 0
-36 -35 0
-33 35 36 0
37 -3 0
37 11 0
3 -11 -37 0
-36 -37 -38 0
36 37 -38 0
-36 37 38 0
36 -37 38 0
39 15 0
39 31 0
-15 -31 -39 0
40 1 0
40 -39 0
-1 39 -40 0
-14 1 -41 0
14 -1 -41 0
-14 -1 41 0
14 1 41 0
41 -12 -42 0
-41 12 -42 0
41 12 42 0
-41 -12 42 0
-43 3 0
-43 1 0
-3 -1 43 0
-44 19 0
-44 43 0
-19 -43 44 0
-46 -44 0
-46 45 0
44 -45 46 0
-42 46 -47 0
42 -46 -47 0
-42 -46 47 0
42 46 47 0
40 -47 -48 0
-40 47 -48 0
40 47 48 0
-40 -47 48 0
-49 -38 0
-49 -48 0
38 48 49 0
-50 29 0
-50 49 0
-29 -49 50 0
12 -22 29 0
43 47 -4 -27 0
-29 47 -26 0
29 48 3 39 -5 -18 0
33 2 -38 42 -46 -50 -12 0
-21 8 -36 42 -11 -14 0
-33 -22 -39 -26 45 7 20 0
33 -29 34 -14 10 0
44 29 -50 -20 28 -47 -37 -40 0
-47 -22 48 0
10 17 -5 33 -48 45 49 21 0
-16 -34 32 -4 -46 -2 -39 0
-17 42 -48 -46 -45 -12 -43 0
50 0
